# Objective value = 2.9302641158628160e+02
x[0] 1
x[1] 1
x[2] 1
x[3] 1
x[4] 0
x[5] 0
x[6] 1
x[7] 1
x[8] 1
x[9] 0
x[10] 0
x[11] 0
x[12] 0
x[13] 0
x[14] 1
x[15] 0
x[16] 0
x[17] 1
x[18] 0
x[19] 0
x[20] 0
x[21] 0
x[22] 0
x[23] 0
x[24] 1
x[25] 0
x[26] 1
x[27] 0
x[28] 0
x[29] 1
x[30] 1
x[31] 1
x[32] 1
x[33] 1
x[34] 0
x[35] 0
x[36] 1
x[37] 0
x[38] 0
x[39] 1
x[40] 0
x[41] 0
x[42] 0
x[43] 0
x[44] 0
x[45] 1
x[46] 0
x[47] 0
x[48] 1
x[49] 1
x[50] 0
x[51] 1
x[52] 1
x[53] 0
x[54] 1
x[55] 1
x[56] 0
x[57] 0
x[58] 1
x[59] 1
x[60] 1
x[61] 1
x[62] 1
x[63] 0
x[64] 1
x[65] 0
x[66] 1
x[67] 0
x[68] 0
x[69] 0
x[70] 0
x[71] 0
x[72] 1
x[73] 1
x[74] 0
x[75] 1
x[76] 0
x[77] 0
x[78] 0
x[79] 0
x[80] 0
x[81] 0
x[82] 1
x[83] 1
x[84] 1
x[85] 1
x[86] 0
x[87] 1
x[88] 0
x[89] 0
x[90] 1
x[91] 1
x[92] 0
x[93] 0
x[94] 0
x[95] 0
x[96] 0
x[97] 1
x[98] 0
x[99] 1
x[100] 1
x[101] 0
x[102] 0
x[103] 0
x[104] 1
x[105] 0
x[106] 0
x[107] 0
x[108] 1
x[109] 1
x[110] 1
x[111] 1
x[112] 0
x[113] 0
x[114] 1
x[115] 1
x[116] 0
x[117] 0
x[118] 1
x[119] 0
x[120] 1
x[121] 1
x[122] 1
x[123] 0
x[124] 0
x[125] 0
x[126] 0
x[127] 0
x[128] 0
x[129] 1
x[130] 0
x[131] 0
x[132] 1
x[133] 0
x[134] 0
x[135] 0
x[136] 0
x[137] 1
x[138] 1
x[139] 1
x[140] 0
x[141] 0
x[142] 1
x[143] 0
x[144] 0
x[145] 0
x[146] 1
x[147] 0
x[148] 0
x[149] 1
x[150] 0
x[151] 0
x[152] 1
x[153] 0
x[154] 0
x[155] 1
x[156] 0
x[157] 1
x[158] 0
x[159] 1
x[160] 1
x[161] 1
x[162] 1
x[163] 0
x[164] 0
x[165] 0
x[166] 0
x[167] 0
x[168] 0
x[169] 0
x[170] 1
x[171] 1
x[172] 1
x[173] 0
x[174] 0
x[175] 0
x[176] 1
x[177] 1
x[178] 0
x[179] 0
x[180] 0
x[181] 1
x[182] 1
x[183] 1
x[184] 1
x[185] 0
x[186] 0
x[187] 0
x[188] 0
x[189] 0
x[190] 0
x[191] 0
x[192] 0
x[193] 1
x[194] 0
x[195] 1
x[196] 1
x[197] 0
x[198] 0
x[199] 1
x[200] 1
x[201] 1
x[202] 1
x[203] 1
x[204] 0
x[205] 0
x[206] 0
x[207] 0
x[208] 1
x[209] 0
x[210] 0
x[211] 0
x[212] 1
x[213] 0
x[214] 1
x[215] 0
x[216] 0
x[217] 1
x[218] 0
x[219] 0
x[220] 0
x[221] 0
x[222] 1
x[223] 1
x[224] 0
x[225] 1
x[226] 0
x[227] 1
x[228] 1
x[229] 1
x[230] 0
x[231] 1
x[232] 0
x[233] 1
x[234] 1
x[235] 1
x[236] 0
x[237] 1
x[238] 0
x[239] 1
x[240] 1
x[241] 0
x[242] 1
x[243] 0
x[244] 1
x[245] 0
x[246] 1
x[247] 0
x[248] 1
x[249] 1
x[250] 1
x[251] 1
x[252] 1
x[253] 0
x[254] 0
x[255] 1
x[256] 1
x[257] 1
x[258] 0
x[259] 0
x[260] 1
x[261] 1
x[262] 1
x[263] 1
x[264] 0
x[265] 0
x[266] 1
x[267] 1
x[268] 1
x[269] 0
x[270] 1
x[271] 1
x[272] 0
x[273] 1
x[274] 0
x[275] 1
x[276] 0
x[277] 0
x[278] 1
x[279] 1
x[280] 1
x[281] 0
x[282] 1
x[283] 0
x[284] 1
x[285] 1
x[286] 0
x[287] 1
x[288] 1
x[289] 1
x[290] 0
x[291] 1
x[292] 1
x[293] 1
x[294] 0
x[295] 0
x[296] 1
x[297] 0
x[298] 0
x[299] 0
x[300] 1
x[301] 0
x[302] 0
x[303] 1
x[304] 1
x[305] 0
x[306] 0
x[307] 0
x[308] 1
x[309] 0
x[310] 0
x[311] 0
x[312] 0
x[313] 1
x[314] 0
x[315] 0
x[316] 0
x[317] 0
x[318] 1
x[319] 0
x[320] 0
x[321] 0
x[322] 0
x[323] 0
x[324] 1
x[325] 1
x[326] 0
x[327] 0
x[328] 1
x[329] 1
x[330] 1
x[331] 1
x[332] 1
x[333] 1
x[334] 0
x[335] 1
x[336] 1
x[337] 1
x[338] 1
x[339] 0
x[340] 1
x[341] 1
x[342] 0
x[343] 0
x[344] 1
x[345] 1
x[346] 0
x[347] 0
x[348] 0
x[349] 0
x[350] 1
x[351] 1
x[352] 0
x[353] 0
x[354] 1
x[355] 1
x[356] 1
x[357] 1
x[358] 0
x[359] 0
x[360] 1
x[361] 1
x[362] 1
x[363] 1
x[364] 1
x[365] 0
x[366] 0
x[367] 1
x[368] 1
x[369] 0
x[370] 0
x[371] 1
x[372] 1
x[373] 1
x[374] 1
x[375] 0
x[376] 0
x[377] 0
x[378] 0
x[379] 1
x[380] 0
x[381] 1
x[382] 0
x[383] 1
x[384] 1
x[385] 0
x[386] 1
x[387] 0
x[388] 0
x[389] 1
x[390] 1
x[391] 0
x[392] 0
x[393] 0
x[394] 1
x[395] 1
x[396] 0
x[397] 1
x[398] 0
x[399] 0
x[400] 1
x[401] 0
x[402] 0
x[403] 1
x[404] 0
x[405] 0
x[406] 1
x[407] 1
x[408] 1
x[409] 1
x[410] 0
x[411] 1
x[412] 1
x[413] 0
x[414] 0
x[415] 0
x[416] 1
x[417] 0
x[418] 1
x[419] 0
x[420] 1
x[421] 1
x[422] 0
x[423] 1
x[424] 1
x[425] 0
x[426] 1
x[427] 0
x[428] 0
x[429] 0
x[430] 1
x[431] 0
x[432] 0
x[433] 0
x[434] 1
x[435] 0
x[436] 1
x[437] 0
x[438] 1
x[439] 0
x[440] 1
x[441] 0
x[442] 0
x[443] 1
x[444] 0
x[445] 0
x[446] 0
x[447] 1
x[448] 1
x[449] 0
x[450] 1
x[451] 0
x[452] 1
x[453] 0
x[454] 1
x[455] 1
x[456] 0
x[457] 0
x[458] 1
x[459] 1
x[460] 1
x[461] 0
x[462] 0
x[463] 0
x[464] 1
x[465] 0
x[466] 0
x[467] 1
x[468] 0
x[469] 0
x[470] 0
x[471] 0
x[472] 0
x[473] 1
x[474] 1
x[475] 0
x[476] 1
x[477] 1
x[478] 0
x[479] 1
x[480] 1
x[481] 1
x[482] 0
x[483] 1
x[484] 1
x[485] 0
x[486] 0
x[487] 1
x[488] 1
x[489] 1
x[490] 1
x[491] 1
x[492] 0
x[493] 1
x[494] 1
x[495] 0
x[496] 0
x[497] 1
x[498] 1
x[499] 0
x[500] 1
x[501] 1
x[502] 1
x[503] 1
x[504] 1
x[505] 0
x[506] 1
x[507] 0
x[508] 1
x[509] 0
x[510] 1
x[511] 0
x[512] 0
x[513] 0
x[514] 1
x[515] 1
x[516] 0
x[517] 1
x[518] 1
x[519] 0
x[520] 1
x[521] 1
x[522] 1
x[523] 1
x[524] 1
x[525] 0
x[526] 1
x[527] 0
x[528] 0
x[529] 1
x[530] 1
x[531] 0
x[532] 0
x[533] 0
x[534] 1
x[535] 0
x[536] 1
x[537] 0
x[538] 0
x[539] 0
x[540] 0
x[541] 0
x[542] 0
x[543] 0
x[544] 1
x[545] 1
x[546] 1
x[547] 1
x[548] 1
x[549] 0
x[550] 0
x[551] 0
x[552] 0
x[553] 1
x[554] 0
x[555] 0
x[556] 0
x[557] 0
x[558] 1
x[559] 1
x[560] 0
x[561] 0
x[562] 1
x[563] 0
x[564] 0
x[565] 0
x[566] 0
x[567] 1
x[568] 0
x[569] 1
x[570] 0
x[571] 0
x[572] 1
x[573] 0
x[574] 1
x[575] 1
x[576] 0
x[577] 0
x[578] 0
x[579] 1
x[580] 0
x[581] 0
x[582] 1
x[583] 1
x[584] 1
x[585] 1
x[586] 0
x[587] 1
x[588] 1
x[589] 0
x[590] 0
x[591] 0
x[592] 0
x[593] 0
x[594] 0
x[595] 1
x[596] 0
x[597] 1
x[598] 0
x[599] 0
x[600] 1
x[601] 1
x[602] 1
x[603] 0
x[604] 0
x[605] 1
x[606] 0
x[607] 0
x[608] 0
x[609] 1
x[610] 1
x[611] 0
x[612] 0
x[613] 1
x[614] 1
x[615] 1
x[616] 1
x[617] 1
x[618] 1
x[619] 0
x[620] 0
x[621] 1
x[622] 1
x[623] 0
x[624] 1
x[625] 1
x[626] 1
x[627] 1
x[628] 0
x[629] 1
x[630] 0
x[631] 1
x[632] 1
x[633] 1
x[634] 0
x[635] 1
x[636] 0
x[637] 1
x[638] 0
x[639] 0
x[640] 0
x[641] 0
x[642] 0
x[643] 1
x[644] 0
x[645] 1
x[646] 1
x[647] 0
x[648] 1
x[649] 0
x[650] 1
x[651] 0
x[652] 1
x[653] 0
x[654] 1
x[655] 0
x[656] 0
x[657] 1
x[658] 1
x[659] 0
x[660] 1
x[661] 1
x[662] 0
x[663] 0
x[664] 1
x[665] 1
x[666] 1
x[667] 1
x[668] 1
x[669] 0
x[670] 0
x[671] 1
x[672] 1
x[673] 1
x[674] 0
x[675] 0
x[676] 0
x[677] 0
x[678] 0
x[679] 1
x[680] 1
x[681] 0
x[682] 1
x[683] 1
x[684] 0
x[685] 0
x[686] 0
x[687] 1
x[688] 0
x[689] 0
x[690] 1
x[691] 0
x[692] 1
x[693] 0
x[694] 0
x[695] 0
x[696] 1
x[697] 0
x[698] 1
x[699] 1
x[700] 0
x[701] 1
x[702] 1
x[703] 1
x[704] 1
x[705] 0
x[706] 1
x[707] 1
x[708] 1
x[709] 1
x[710] 1
x[711] 1
x[712] 0
x[713] 0
x[714] 1
x[715] 0
x[716] 0
x[717] 0
x[718] 0
x[719] 0
x[720] 1
x[721] 0
x[722] 1
x[723] 1
x[724] 0
x[725] 1
x[726] 0
x[727] 0
x[728] 0
x[729] 0
x[730] 0
x[731] 0
x[732] 1
x[733] 0
x[734] 0
x[735] 0
x[736] 0
x[737] 1
x[738] 0
x[739] 1
x[740] 1
x[741] 1
x[742] 1
x[743] 0
x[744] 1
x[745] 1
x[746] 0
x[747] 1
x[748] 1
x[749] 0
x[750] 1
x[751] 0
x[752] 1
x[753] 0
x[754] 0
x[755] 0
x[756] 0
x[757] 1
x[758] 1
x[759] 0
x[760] 0
x[761] 1
x[762] 1
x[763] 0
x[764] 0
x[765] 1
x[766] 0
x[767] 1
x[768] 0
x[769] 0
x[770] 1
x[771] 0
x[772] 1
x[773] 1
x[774] 1
x[775] 0
x[776] 0
x[777] 1
x[778] 0
x[779] 0
x[780] 0
x[781] 0
x[782] 0
x[783] 0
x[784] 0
x[785] 1
x[786] 0
x[787] 1
x[788] 1
x[789] 1
x[790] 1
x[791] 0
x[792] 1
x[793] 0
x[794] 0
x[795] 1
x[796] 0
x[797] 1
x[798] 1
x[799] 1
x[800] 1
x[801] 1
x[802] 0
x[803] 0
x[804] 0
x[805] 1
x[806] 0
x[807] 0
x[808] 1
x[809] 1
x[810] 1
x[811] 0
x[812] 1
x[813] 0
x[814] 0
x[815] 1
x[816] 1
x[817] 1
x[818] 0
x[819] 0
x[820] 0
x[821] 0
x[822] 0
x[823] 0
x[824] 0
x[825] 0
x[826] 0
x[827] 0
x[828] 0
x[829] 0
x[830] 1
x[831] 0
x[832] 1
x[833] 1
x[834] 0
x[835] 1
x[836] 0
x[837] 1
x[838] 0
x[839] 0
x[840] 0
x[841] 0
x[842] 0
x[843] 1
x[844] 0
x[845] 0
x[846] 0
x[847] 1
x[848] 0
x[849] 1
x[850] 0
x[851] 0
x[852] 1
x[853] 1
x[854] 1
x[855] 1
x[856] 1
x[857] 0
x[858] 0
x[859] 0
x[860] 1
x[861] 1
x[862] 0
x[863] 0
x[864] 0
x[865] 0
x[866] 1
x[867] 1
x[868] 0
x[869] 1
x[870] 1
x[871] 0
x[872] 1
x[873] 1
x[874] 0
x[875] 1
x[876] 1
x[877] 1
x[878] 0
x[879] 0
x[880] 1
x[881] 1
x[882] 0
x[883] 0
x[884] 0
x[885] 1
x[886] 0
x[887] 1
x[888] 1
x[889] 1
x[890] 0
x[891] 0
x[892] 1
x[893] 0
x[894] 0
x[895] 0
x[896] 0
x[897] 1
x[898] 1
x[899] 1
x[900] 1
x[901] 1
x[902] 1
x[903] 0
x[904] 1
x[905] 0
x[906] 0
x[907] 0
x[908] 0
x[909] 0
x[910] 0
x[911] 1
x[912] 0
x[913] 0
x[914] 1
x[915] 1
x[916] 1
x[917] 1
x[918] 0
x[919] 1
x[920] 0
x[921] 1
x[922] 0
x[923] 1
x[924] 1
x[925] 0
x[926] 0
x[927] 1
x[928] 1
x[929] 1
x[930] 1
x[931] 0
x[932] 0
x[933] 1
x[934] 0
x[935] 1
x[936] 1
x[937] 1
x[938] 1
x[939] 0
x[940] 1
x[941] 0
x[942] 1
x[943] 1
x[944] 0
x[945] 1
x[946] 0
x[947] 0
x[948] 0
x[949] 0
x[950] 0
x[951] 0
x[952] 1
x[953] 1
x[954] 0
x[955] 0
x[956] 1
x[957] 0
x[958] 0
x[959] 0
x[960] 0
x[961] 0
x[962] 1
x[963] 1
x[964] 1
x[965] 1
x[966] 1
x[967] 0
x[968] 0
x[969] 0
x[970] 1
x[971] 0
x[972] 0
x[973] 0
x[974] 0
x[975] 0
x[976] 0
x[977] 0
x[978] 1
x[979] 1
x[980] 1
x[981] 0
x[982] 0
x[983] 1
x[984] 0
x[985] 0
x[986] 0
x[987] 1
x[988] 0
x[989] 1
x[990] 0
x[991] 0
x[992] 1
x[993] 0
x[994] 1
x[995] 0
x[996] 0
x[997] 1
x[998] 1
x[999] 1
